p cnf 57 1365
-39 -21 0
-39 -1 0
-39 -41 0
-39 -25 0
-39 -2 0
-39 -45 0
-39 -22 0
-39 -6 0
-39 -42 0
-39 -26 0
-39 -10 0
-39 -46 0
-39 -30 0
-39 -7 0
-39 -50 0
-39 -27 0
-39 -11 0
-39 -54 0
-21 -1 0
-21 -41 0
-21 -25 0
-21 -2 0
-21 -45 0
-21 -22 0
-21 -6 0
-21 -42 0
-21 -26 0
-21 -10 0
-21 -46 0
-21 -30 0
-21 -7 0
-21 -50 0
-21 -27 0
-21 -11 0
-21 -54 0
-1 -41 0
-1 -25 0
-1 -2 0
-1 -45 0
-1 -22 0
-1 -6 0
-1 -42 0
-1 -26 0
-1 -10 0
-1 -46 0
-1 -30 0
-1 -7 0
-1 -50 0
-1 -27 0
-1 -11 0
-1 -54 0
-41 -25 0
-41 -2 0
-41 -45 0
-41 -22 0
-41 -6 0
-41 -42 0
-41 -26 0
-41 -10 0
-41 -46 0
-41 -30 0
-41 -7 0
-41 -50 0
-41 -27 0
-41 -11 0
-41 -54 0
-25 -2 0
-25 -45 0
-25 -22 0
-25 -6 0
-25 -42 0
-25 -26 0
-25 -10 0
-25 -46 0
-25 -30 0
-25 -7 0
-25 -50 0
-25 -27 0
-25 -11 0
-25 -54 0
-2 -45 0
-2 -22 0
-2 -6 0
-2 -42 0
-2 -26 0
-2 -10 0
-2 -46 0
-2 -30 0
-2 -7 0
-2 -50 0
-2 -27 0
-2 -11 0
-2 -54 0
-45 -22 0
-45 -6 0
-45 -42 0
-45 -26 0
-45 -10 0
-45 -46 0
-45 -30 0
-45 -7 0
-45 -50 0
-45 -27 0
-45 -11 0
-45 -54 0
-22 -6 0
-22 -42 0
-22 -26 0
-22 -10 0
-22 -46 0
-22 -30 0
-22 -7 0
-22 -50 0
-22 -27 0
-22 -11 0
-22 -54 0
-6 -42 0
-6 -26 0
-6 -10 0
-6 -46 0
-6 -30 0
-6 -7 0
-6 -50 0
-6 -27 0
-6 -11 0
-6 -54 0
-42 -26 0
-42 -10 0
-42 -46 0
-42 -30 0
-42 -7 0
-42 -50 0
-42 -27 0
-42 -11 0
-42 -54 0
-26 -10 0
-26 -46 0
-26 -30 0
-26 -7 0
-26 -50 0
-26 -27 0
-26 -11 0
-26 -54 0
-10 -46 0
-10 -30 0
-10 -7 0
-10 -50 0
-10 -27 0
-10 -11 0
-10 -54 0
-46 -30 0
-46 -7 0
-46 -50 0
-46 -27 0
-46 -11 0
-46 -54 0
-30 -7 0
-30 -50 0
-30 -27 0
-30 -11 0
-30 -54 0
-7 -50 0
-7 -27 0
-7 -11 0
-7 -54 0
-50 -27 0
-50 -11 0
-50 -54 0
-27 -11 0
-27 -54 0
-11 -54 0
-4 -40 0
-4 -24 0
-4 -8 0
-4 -44 0
-4 -28 0
-4 -5 0
-4 -48 0
-4 -32 0
-4 -9 0
-4 -52 0
-4 -29 0
-4 -13 0
-4 -49 0
-4 -33 0
-4 -17 0
-4 -53 0
-4 -37 0
-4 -14 0
-40 -24 0
-40 -8 0
-40 -44 0
-40 -28 0
-40 -5 0
-40 -48 0
-40 -32 0
-40 -9 0
-40 -52 0
-40 -29 0
-40 -13 0
-40 -49 0
-40 -33 0
-40 -17 0
-40 -53 0
-40 -37 0
-40 -14 0
-24 -8 0
-24 -44 0
-24 -28 0
-24 -5 0
-24 -48 0
-24 -32 0
-24 -9 0
-24 -52 0
-24 -29 0
-24 -13 0
-24 -49 0
-24 -33 0
-24 -17 0
-24 -53 0
-24 -37 0
-24 -14 0
-8 -44 0
-8 -28 0
-8 -5 0
-8 -48 0
-8 -32 0
-8 -9 0
-8 -52 0
-8 -29 0
-8 -13 0
-8 -49 0
-8 -33 0
-8 -17 0
-8 -53 0
-8 -37 0
-8 -14 0
-44 -28 0
-44 -5 0
-44 -48 0
-44 -32 0
-44 -9 0
-44 -52 0
-44 -29 0
-44 -13 0
-44 -49 0
-44 -33 0
-44 -17 0
-44 -53 0
-44 -37 0
-44 -14 0
-28 -5 0
-28 -48 0
-28 -32 0
-28 -9 0
-28 -52 0
-28 -29 0
-28 -13 0
-28 -49 0
-28 -33 0
-28 -17 0
-28 -53 0
-28 -37 0
-28 -14 0
-5 -48 0
-5 -32 0
-5 -9 0
-5 -52 0
-5 -29 0
-5 -13 0
-5 -49 0
-5 -33 0
-5 -17 0
-5 -53 0
-5 -37 0
-5 -14 0
-48 -32 0
-48 -9 0
-48 -52 0
-48 -29 0
-48 -13 0
-48 -49 0
-48 -33 0
-48 -17 0
-48 -53 0
-48 -37 0
-48 -14 0
-32 -9 0
-32 -52 0
-32 -29 0
-32 -13 0
-32 -49 0
-32 -33 0
-32 -17 0
-32 -53 0
-32 -37 0
-32 -14 0
-9 -52 0
-9 -29 0
-9 -13 0
-9 -49 0
-9 -33 0
-9 -17 0
-9 -53 0
-9 -37 0
-9 -14 0
-52 -29 0
-52 -13 0
-52 -49 0
-52 -33 0
-52 -17 0
-52 -53 0
-52 -37 0
-52 -14 0
-29 -13 0
-29 -49 0
-29 -33 0
-29 -17 0
-29 -53 0
-29 -37 0
-29 -14 0
-13 -49 0
-13 -33 0
-13 -17 0
-13 -53 0
-13 -37 0
-13 -14 0
-49 -33 0
-49 -17 0
-49 -53 0
-49 -37 0
-49 -14 0
-33 -17 0
-33 -53 0
-33 -37 0
-33 -14 0
-17 -53 0
-17 -37 0
-17 -14 0
-53 -37 0
-53 -14 0
-37 -14 0
-43 -31 0
-43 -3 0
-43 -47 0
-43 -23 0
-43 -12 0
-43 -51 0
-43 -34 0
-43 -15 0
-43 -55 0
-43 -35 0
-43 -16 0
-43 -56 0
-43 -36 0
-43 -18 0
-43 -20 0
-43 -38 0
-43 -19 0
-43 -57 0
-31 -3 0
-31 -47 0
-31 -23 0
-31 -12 0
-31 -51 0
-31 -34 0
-31 -15 0
-31 -55 0
-31 -35 0
-31 -16 0
-31 -56 0
-31 -36 0
-31 -18 0
-31 -20 0
-31 -38 0
-31 -19 0
-31 -57 0
-3 -47 0
-3 -23 0
-3 -12 0
-3 -51 0
-3 -34 0
-3 -15 0
-3 -55 0
-3 -35 0
-3 -16 0
-3 -56 0
-3 -36 0
-3 -18 0
-3 -20 0
-3 -38 0
-3 -19 0
-3 -57 0
-47 -23 0
-47 -12 0
-47 -51 0
-47 -34 0
-47 -15 0
-47 -55 0
-47 -35 0
-47 -16 0
-47 -56 0
-47 -36 0
-47 -18 0
-47 -20 0
-47 -38 0
-47 -19 0
-47 -57 0
-23 -12 0
-23 -51 0
-23 -34 0
-23 -15 0
-23 -55 0
-23 -35 0
-23 -16 0
-23 -56 0
-23 -36 0
-23 -18 0
-23 -20 0
-23 -38 0
-23 -19 0
-23 -57 0
-12 -51 0
-12 -34 0
-12 -15 0
-12 -55 0
-12 -35 0
-12 -16 0
-12 -56 0
-12 -36 0
-12 -18 0
-12 -20 0
-12 -38 0
-12 -19 0
-12 -57 0
-51 -34 0
-51 -15 0
-51 -55 0
-51 -35 0
-51 -16 0
-51 -56 0
-51 -36 0
-51 -18 0
-51 -20 0
-51 -38 0
-51 -19 0
-51 -57 0
-34 -15 0
-34 -55 0
-34 -35 0
-34 -16 0
-34 -56 0
-34 -36 0
-34 -18 0
-34 -20 0
-34 -38 0
-34 -19 0
-34 -57 0
-15 -55 0
-15 -35 0
-15 -16 0
-15 -56 0
-15 -36 0
-15 -18 0
-15 -20 0
-15 -38 0
-15 -19 0
-15 -57 0
-55 -35 0
-55 -16 0
-55 -56 0
-55 -36 0
-55 -18 0
-55 -20 0
-55 -38 0
-55 -19 0
-55 -57 0
-35 -16 0
-35 -56 0
-35 -36 0
-35 -18 0
-35 -20 0
-35 -38 0
-35 -19 0
-35 -57 0
-16 -56 0
-16 -36 0
-16 -18 0
-16 -20 0
-16 -38 0
-16 -19 0
-16 -57 0
-56 -36 0
-56 -18 0
-56 -20 0
-56 -38 0
-56 -19 0
-56 -57 0
-36 -18 0
-36 -20 0
-36 -38 0
-36 -19 0
-36 -57 0
-18 -20 0
-18 -38 0
-18 -19 0
-18 -57 0
-20 -38 0
-20 -19 0
-20 -57 0
-38 -19 0
-38 -57 0
-19 -57 0
-39 -4 0
-39 -43 0
-4 -43 0
-21 -40 0
-21 -31 0
-40 -31 0
-1 -24 0
-1 -3 0
-24 -3 0
-41 -8 0
-41 -47 0
-8 -47 0
-25 -44 0
-25 -23 0
-44 -23 0
-2 -28 0
-2 -12 0
-28 -12 0
-45 -5 0
-45 -51 0
-5 -51 0
-22 -48 0
-22 -34 0
-48 -34 0
-6 -32 0
-6 -15 0
-32 -15 0
-42 -9 0
-42 -55 0
-9 -55 0
-26 -52 0
-26 -35 0
-52 -35 0
-10 -29 0
-10 -16 0
-29 -16 0
-46 -13 0
-46 -56 0
-13 -56 0
-30 -49 0
-30 -36 0
-49 -36 0
-7 -33 0
-7 -18 0
-33 -18 0
-50 -17 0
-50 -20 0
-17 -20 0
-27 -53 0
-27 -38 0
-53 -38 0
-11 -37 0
-11 -19 0
-37 -19 0
-54 -14 0
-54 -57 0
-14 -57 0
39 21 1 41 25 2 45 22 6 42 26 10 46 30 7 50 27 11 54 0
4 40 24 8 44 28 5 48 32 9 52 29 13 49 33 17 53 37 14 0
43 31 3 47 23 12 51 34 15 55 35 16 56 36 18 20 38 19 57 0
-45 -14 0
-54 -5 0
-41 -49 0
-30 -8 0
-2 -52 0
-26 -28 0
-6 -9 0
-42 -32 0
-39 -28 0
-2 -4 0
-6 -14 0
-54 -32 0
-42 -37 0
-11 -9 0
-39 -33 0
-7 -4 0
-1 -29 0
-10 -24 0
-10 -33 0
-7 -29 0
-21 -17 0
-50 -40 0
-30 -37 0
-11 -49 0
-45 -29 0
-10 -5 0
-22 -52 0
-26 -48 0
-41 -5 0
-45 -8 0
-41 -17 0
-50 -8 0
-2 -13 0
-46 -28 0
-7 -17 0
-50 -33 0
-42 -52 0
-26 -9 0
-39 -48 0
-22 -4 0
-1 -44 0
-25 -24 0
-39 -53 0
-27 -4 0
-10 -53 0
-27 -29 0
-21 -32 0
-6 -40 0
-21 -37 0
-11 -40 0
-50 -53 0
-27 -17 0
-45 -49 0
-30 -5 0
-41 -32 0
-6 -8 0
-41 -37 0
-11 -8 0
-2 -33 0
-7 -28 0
-7 -37 0
-11 -33 0
-42 -13 0
-46 -9 0
-39 -9 0
-42 -4 0
-50 -14 0
-54 -17 0
-27 -37 0
-11 -53 0
-22 -33 0
-7 -48 0
-41 -52 0
-26 -8 0
-2 -48 0
-22 -28 0
-39 -24 0
-1 -4 0
-2 -53 0
-27 -28 0
-25 -14 0
-54 -44 0
-42 -33 0
-7 -9 0
-21 -8 0
-41 -40 0
-26 -17 0
-50 -52 0
-21 -13 0
-46 -40 0
-30 -33 0
-7 -49 0
-22 -53 0
-27 -48 0
-46 -17 0
-50 -13 0
-41 -13 0
-46 -8 0
-2 -9 0
-42 -28 0
-25 -29 0
-10 -44 0
-2 -14 0
-54 -28 0
-42 -53 0
-27 -9 0
-21 -28 0
-2 -40 0
-26 -37 0
-11 -52 0
-21 -33 0
-7 -40 0
-30 -53 0
-27 -49 0
-1 -49 0
-30 -24 0
-22 -9 0
-42 -48 0
-41 -28 0
-2 -8 0
-46 -37 0
-11 -13 0
-41 -33 0
-7 -8 0
-2 -29 0
-10 -28 0
-21 -48 0
-22 -40 0
-21 -53 0
-27 -40 0
-39 -14 0
-54 -4 0
-1 -17 0
-50 -24 0
-10 -14 0
-54 -29 0
-22 -29 0
-10 -48 0
-30 -14 0
-54 -49 0
-25 -5 0
-45 -44 0
-41 -53 0
-27 -8 0
-2 -49 0
-30 -28 0
-11 -14 0
-54 -37 0
-26 -13 0
-46 -52 0
-21 -9 0
-42 -40 0
-39 -29 0
-10 -4 0
-1 -32 0
-6 -24 0
-21 -14 0
-54 -40 0
-1 -37 0
-11 -24 0
-45 -37 0
-11 -5 0
-25 -32 0
-6 -44 0
-41 -14 0
-54 -8 0
-7 -14 0
-54 -33 0
-21 -24 0
-1 -40 0
-39 -44 0
-25 -4 0
-6 -37 0
-11 -32 0
-26 -33 0
-7 -52 0
-39 -49 0
-30 -4 0
-10 -49 0
-30 -29 0
-45 -52 0
-26 -5 0
-22 -14 0
-54 -48 0
-46 -33 0
-7 -13 0
-41 -29 0
-10 -8 0
-21 -44 0
-25 -40 0
-39 -5 0
-45 -4 0
-1 -8 0
-41 -24 0
-26 -53 0
-27 -52 0
-21 -49 0
-30 -40 0
-42 -14 0
-54 -9 0
-1 -13 0
-46 -24 0
-45 -13 0
-46 -5 0
-41 -44 0
-25 -8 0
-46 -53 0
-27 -13 0
-25 -13 0
-46 -44 0
-6 -13 0
-46 -32 0
-42 -29 0
-10 -9 0
-39 -32 0
-6 -4 0
-1 -28 0
-2 -24 0
-39 -37 0
-11 -4 0
-1 -33 0
-7 -24 0
-10 -37 0
-11 -29 0
-50 -37 0
-11 -17 0
-45 -33 0
-7 -5 0
-2 -17 0
-50 -28 0
-26 -29 0
-10 -52 0
-42 -49 0
-30 -9 0
-1 -48 0
-22 -24 0
-45 -48 0
-22 -5 0
-45 -53 0
-27 -5 0
-22 -17 0
-50 -48 0
-25 -48 0
-22 -44 0
-25 -53 0
-27 -44 0
-2 -32 0
-6 -28 0
-39 -8 0
-41 -4 0
-6 -53 0
-27 -32 0
-42 -17 0
-50 -9 0
-1 -9 0
-42 -24 0
-1 -14 0
-54 -24 0
-30 -17 0
-50 -49 0
-45 -9 0
-42 -5 0
-22 -32 0
-6 -48 0
-45 -57 0
-54 -51 0
-41 -36 0
-30 -47 0
-2 -35 0
-26 -12 0
-6 -55 0
-42 -15 0
-39 -12 0
-2 -43 0
-6 -57 0
-54 -15 0
-42 -19 0
-11 -55 0
-39 -18 0
-7 -43 0
-1 -16 0
-10 -3 0
-10 -18 0
-7 -16 0
-21 -20 0
-50 -31 0
-30 -19 0
-11 -36 0
-45 -16 0
-10 -51 0
-22 -35 0
-26 -34 0
-41 -51 0
-45 -47 0
-41 -20 0
-50 -47 0
-2 -56 0
-46 -12 0
-7 -20 0
-50 -18 0
-42 -35 0
-26 -55 0
-39 -34 0
-22 -43 0
-1 -23 0
-25 -3 0
-39 -38 0
-27 -43 0
-10 -38 0
-27 -16 0
-21 -15 0
-6 -31 0
-21 -19 0
-11 -31 0
-50 -38 0
-27 -20 0
-45 -36 0
-30 -51 0
-41 -15 0
-6 -47 0
-41 -19 0
-11 -47 0
-2 -18 0
-7 -12 0
-7 -19 0
-11 -18 0
-42 -56 0
-46 -55 0
-39 -55 0
-42 -43 0
-50 -57 0
-54 -20 0
-27 -19 0
-11 -38 0
-22 -18 0
-7 -34 0
-41 -35 0
-26 -47 0
-2 -34 0
-22 -12 0
-39 -3 0
-1 -43 0
-2 -38 0
-27 -12 0
-25 -57 0
-54 -23 0
-42 -18 0
-7 -55 0
-21 -47 0
-41 -31 0
-26 -20 0
-50 -35 0
-21 -56 0
-46 -31 0
-30 -18 0
-7 -36 0
-22 -38 0
-27 -34 0
-46 -20 0
-50 -56 0
-41 -56 0
-46 -47 0
-2 -55 0
-42 -12 0
-25 -16 0
-10 -23 0
-2 -57 0
-54 -12 0
-42 -38 0
-27 -55 0
-21 -12 0
-2 -31 0
-26 -19 0
-11 -35 0
-21 -18 0
-7 -31 0
-30 -38 0
-27 -36 0
-1 -36 0
-30 -3 0
-22 -55 0
-42 -34 0
-41 -12 0
-2 -47 0
-46 -19 0
-11 -56 0
-41 -18 0
-7 -47 0
-2 -16 0
-10 -12 0
-21 -34 0
-22 -31 0
-21 -38 0
-27 -31 0
-39 -57 0
-54 -43 0
-1 -20 0
-50 -3 0
-10 -57 0
-54 -16 0
-22 -16 0
-10 -34 0
-30 -57 0
-54 -36 0
-25 -51 0
-45 -23 0
-41 -38 0
-27 -47 0
-2 -36 0
-30 -12 0
-11 -57 0
-54 -19 0
-26 -56 0
-46 -35 0
-21 -55 0
-42 -31 0
-39 -16 0
-10 -43 0
-1 -15 0
-6 -3 0
-21 -57 0
-54 -31 0
-1 -19 0
-11 -3 0
-45 -19 0
-11 -51 0
-25 -15 0
-6 -23 0
-41 -57 0
-54 -47 0
-7 -57 0
-54 -18 0
-21 -3 0
-1 -31 0
-39 -23 0
-25 -43 0
-6 -19 0
-11 -15 0
-26 -18 0
-7 -35 0
-39 -36 0
-30 -43 0
-10 -36 0
-30 -16 0
-45 -35 0
-26 -51 0
-22 -57 0
-54 -34 0
-46 -18 0
-7 -56 0
-41 -16 0
-10 -47 0
-21 -23 0
-25 -31 0
-39 -51 0
-45 -43 0
-1 -47 0
-41 -3 0
-26 -38 0
-27 -35 0
-21 -36 0
-30 -31 0
-42 -57 0
-54 -55 0
-1 -56 0
-46 -3 0
-45 -56 0
-46 -51 0
-41 -23 0
-25 -47 0
-46 -38 0
-27 -56 0
-25 -56 0
-46 -23 0
-6 -56 0
-46 -15 0
-42 -16 0
-10 -55 0
-39 -15 0
-6 -43 0
-1 -12 0
-2 -3 0
-39 -19 0
-11 -43 0
-1 -18 0
-7 -3 0
-10 -19 0
-11 -16 0
-50 -19 0
-11 -20 0
-45 -18 0
-7 -51 0
-2 -20 0
-50 -12 0
-26 -16 0
-10 -35 0
-42 -36 0
-30 -55 0
-1 -34 0
-22 -3 0
-45 -34 0
-22 -51 0
-45 -38 0
-27 -51 0
-22 -20 0
-50 -34 0
-25 -34 0
-22 -23 0
-25 -38 0
-27 -23 0
-2 -15 0
-6 -12 0
-39 -47 0
-41 -43 0
-6 -38 0
-27 -15 0
-42 -20 0
-50 -55 0
-1 -55 0
-42 -3 0
-1 -57 0
-54 -3 0
-30 -20 0
-50 -36 0
-45 -55 0
-42 -51 0
-22 -15 0
-6 -34 0
-5 -57 0
-14 -51 0
-8 -36 0
-49 -47 0
-28 -35 0
-52 -12 0
-32 -55 0
-9 -15 0
-4 -12 0
-28 -43 0
-32 -57 0
-14 -15 0
-9 -19 0
-37 -55 0
-4 -18 0
-33 -43 0
-24 -16 0
-29 -3 0
-29 -18 0
-33 -16 0
-40 -20 0
-17 -31 0
-49 -19 0
-37 -36 0
-5 -16 0
-29 -51 0
-48 -35 0
-52 -34 0
-8 -51 0
-5 -47 0
-8 -20 0
-17 -47 0
-28 -56 0
-13 -12 0
-33 -20 0
-17 -18 0
-9 -35 0
-52 -55 0
-4 -34 0
-48 -43 0
-24 -23 0
-44 -3 0
-4 -38 0
-53 -43 0
-29 -38 0
-53 -16 0
-40 -15 0
-32 -31 0
-40 -19 0
-37 -31 0
-17 -38 0
-53 -20 0
-5 -36 0
-49 -51 0
-8 -15 0
-32 -47 0
-8 -19 0
-37 -47 0
-28 -18 0
-33 -12 0
-33 -19 0
-37 -18 0
-9 -56 0
-13 -55 0
-4 -55 0
-9 -43 0
-17 -57 0
-14 -20 0
-53 -19 0
-37 -38 0
-48 -18 0
-33 -34 0
-8 -35 0
-52 -47 0
-28 -34 0
-48 -12 0
-4 -3 0
-24 -43 0
-28 -38 0
-53 -12 0
-44 -57 0
-14 -23 0
-9 -18 0
-33 -55 0
-40 -47 0
-8 -31 0
-52 -20 0
-17 -35 0
-40 -56 0
-13 -31 0
-49 -18 0
-33 -36 0
-48 -38 0
-53 -34 0
-13 -20 0
-17 -56 0
-8 -56 0
-13 -47 0
-28 -55 0
-9 -12 0
-44 -16 0
-29 -23 0
-28 -57 0
-14 -12 0
-9 -38 0
-53 -55 0
-40 -12 0
-28 -31 0
-52 -19 0
-37 -35 0
-40 -18 0
-33 -31 0
-49 -38 0
-53 -36 0
-24 -36 0
-49 -3 0
-48 -55 0
-9 -34 0
-8 -12 0
-28 -47 0
-13 -19 0
-37 -56 0
-8 -18 0
-33 -47 0
-28 -16 0
-29 -12 0
-40 -34 0
-48 -31 0
-40 -38 0
-53 -31 0
-4 -57 0
-14 -43 0
-24 -20 0
-17 -3 0
-29 -57 0
-14 -16 0
-48 -16 0
-29 -34 0
-49 -57 0
-14 -36 0
-44 -51 0
-5 -23 0
-8 -38 0
-53 -47 0
-28 -36 0
-49 -12 0
-37 -57 0
-14 -19 0
-52 -56 0
-13 -35 0
-40 -55 0
-9 -31 0
-4 -16 0
-29 -43 0
-24 -15 0
-32 -3 0
-40 -57 0
-14 -31 0
-24 -19 0
-37 -3 0
-5 -19 0
-37 -51 0
-44 -15 0
-32 -23 0
-8 -57 0
-14 -47 0
-33 -57 0
-14 -18 0
-40 -3 0
-24 -31 0
-4 -23 0
-44 -43 0
-32 -19 0
-37 -15 0
-52 -18 0
-33 -35 0
-4 -36 0
-49 -43 0
-29 -36 0
-49 -16 0
-5 -35 0
-52 -51 0
-48 -57 0
-14 -34 0
-13 -18 0
-33 -56 0
-8 -16 0
-29 -47 0
-40 -23 0
-44 -31 0
-4 -51 0
-5 -43 0
-24 -47 0
-8 -3 0
-52 -38 0
-53 -35 0
-40 -36 0
-49 -31 0
-9 -57 0
-14 -55 0
-24 -56 0
-13 -3 0
-5 -56 0
-13 -51 0
-8 -23 0
-44 -47 0
-13 -38 0
-53 -56 0
-44 -56 0
-13 -23 0
-32 -56 0
-13 -15 0
-9 -16 0
-29 -55 0
-4 -15 0
-32 -43 0
-24 -12 0
-28 -3 0
-4 -19 0
-37 -43 0
-24 -18 0
-33 -3 0
-29 -19 0
-37 -16 0
-17 -19 0
-37 -20 0
-5 -18 0
-33 -51 0
-28 -20 0
-17 -12 0
-52 -16 0
-29 -35 0
-9 -36 0
-49 -55 0
-24 -34 0
-48 -3 0
-5 -34 0
-48 -51 0
-5 -38 0
-53 -51 0
-48 -20 0
-17 -34 0
-44 -34 0
-48 -23 0
-44 -38 0
-53 -23 0
-28 -15 0
-32 -12 0
-4 -47 0
-8 -43 0
-32 -38 0
-53 -15 0
-9 -20 0
-17 -55 0
-24 -55 0
-9 -3 0
-24 -57 0
-14 -3 0
-49 -20 0
-17 -36 0
-5 -55 0
-9 -51 0
-48 -15 0
-32 -34 0
